c Random 3-SAT Problem with parameter:
c is_satisfiable=False, #variables=10, #caluses=60.
p cnf 10 60
4 5 2 0
4 7 9 0
3 -9 2 0
-1 -4 -10 0
-8 -6 5 0
6 -5 4 0
-5 -3 -7 0
-8 7 -2 0
6 1 -5 0
-8 5 -2 0
-8 -1 -6 0
3 6 -2 0
-2 -5 7 0
-1 5 -7 0
-10 1 -8 0
1 -6 -10 0
-1 -9 3 0
2 -5 -3 0
-1 4 10 0
-7 2 -10 0
8 1 -9 0
-4 8 -3 0
-8 9 -4 0
-3 1 4 0
7 -8 9 0
7 3 -1 0
3 5 2 0
2 -6 -7 0
8 7 -10 0
9 -6 -2 0
-1 5 -10 0
5 8 3 0
-5 -10 -1 0
-4 -9 5 0
-1 5 3 0
10 -1 4 0
-6 -1 2 0
8 -5 -9 0
7 -6 -4 0
-9 -10 8 0
-6 -1 10 0
-10 -8 2 0
1 -9 8 0
1 -5 9 0
-9 4 -2 0
-1 -10 2 0
-1 3 -2 0
5 -10 2 0
6 -5 -1 0
4 -2 1 0
10 -5 3 0
-7 2 5 0
10 6 -3 0
-8 -2 5 0
-8 -5 -10 0
8 -7 -5 0
10 1 2 0
-3 6 -9 0
-6 -4 5 0
-4 -10 2 0
